p tw 43 89
5 17
5 16
14 16
14 19
1 4
1 10
1 19
6 12
6 17
6 8
9 20
9 18
9 11
9 19
2 16
2 4
2 10
2 12
2 20
12 13
12 19
8 14
8 9
8 20
4 5
4 14
4 41
4 17
15 17
15 16
42 43
24 35
24 37
24 34
24 26
25 37
25 28
25 31
29 42
29 33
29 39
29 40
21 30
21 40
21 22
21 29
21 36
21 25
21 27
21 34
33 36
28 31
28 38
28 36
13 15
13 18
41 43
41 42
17 42
32 38
32 33
34 38
34 41
34 40
22 27
22 37
22 25
22 43
22 35
7 13
7 12
7 11
39 40
3 18
3 9
3 20
3 43
35 39
16 20
16 18
31 33
11 17
26 31
26 34
23 34
23 32
23 39
36 39
30 37
